100
100
99
99
99
99
97
97
95
94
92
92
92
91
91
90
90
90
89
88
87
87
86
85
84
83
83
83
81
80
79
78
78
77
76
76
74
73
73
72
72
72
71
70
70
70
68
68
67
67
65
65
65
64
64
64
64
63
63
63
63
61
60
59
58
57
57
56
55
54
53
51
50
49
48
48
48
47
47
45
41
39
39
38
38
37
36
35
29
28
27
26
26
24
22
22
22
22
22
21
20
20
